Welcome to the CBC MILP Solver 
Version: 2.10.3 
Build Date: Dec 15 2019 

command line - /home/cdmonsalvea/AI_OR_Workflow/.venv/lib/python3.10/site-packages/pulp/solverdir/cbc/linux/64/cbc /tmp/e2668bc9abb54f9ebc8454882f2ad31f-pulp.mps -sec 3600 -timeMode elapsed -branch -printingOptions all -solution /tmp/e2668bc9abb54f9ebc8454882f2ad31f-pulp.sol (default strategy 1)
At line 2 NAME          MODEL
At line 3 ROWS
At line 25 COLUMNS
At line 356 RHS
At line 377 BOUNDS
At line 388 ENDATA
Problem MODEL has 20 rows, 110 columns and 210 elements
Coin0008I MODEL read with 0 errors
seconds was changed from 1e+100 to 3600
Option for timeMode changed from cpu to elapsed
Continuous objective value is 578808 - 0.00 seconds
Cgl0004I processed model has 20 rows, 110 columns (10 integer (10 of which binary)) and 210 elements
Cbc0038I Initial state - 10 integers unsatisfied sum - 0.18604
Cbc0038I Pass   1: suminf.    0.18604 (1) obj. 1.72888e+08 iterations 9
Cbc0038I Solution found of 1.7542e+08
Cbc0038I Relaxing continuous gives 1.7542e+08
Cbc0038I Before mini branch and bound, 0 integers at bound fixed and 81 continuous
Cbc0038I Full problem 20 rows 110 columns, reduced to 19 rows 27 columns
Cbc0038I Mini branch and bound improved solution from 1.7542e+08 to 2.52697e+07 (0.00 seconds)
Cbc0038I Round again with cutoff of 2.28006e+07
Cbc0038I Pass   2: suminf.    0.18604 (2) obj. 2.28006e+07 iterations 5
Cbc0038I Pass   3: suminf.    0.01036 (2) obj. 2.28006e+07 iterations 4
Cbc0038I Pass   4: suminf.    0.00356 (1) obj. 2.28006e+07 iterations 8
Cbc0038I Pass   5: suminf.    0.00000 (0) obj. 2.28006e+07 iterations 2
Cbc0038I Solution found of 2.28006e+07
Cbc0038I Relaxing continuous gives 1.89358e+07
Cbc0038I Before mini branch and bound, 0 integers at bound fixed and 80 continuous
Cbc0038I Full problem 20 rows 110 columns, reduced to 18 rows 26 columns
Cbc0038I Mini branch and bound improved solution from 1.89358e+07 to 1.73863e+07 (0.01 seconds)
Cbc0038I Round again with cutoff of 1.40248e+07
Cbc0038I Pass   6: suminf.    0.18604 (5) obj. 1.40248e+07 iterations 3
Cbc0038I Pass   7: suminf.    0.50785 (6) obj. 1.40248e+07 iterations 11
Cbc0038I Pass   8: suminf.    0.10975 (4) obj. 1.40248e+07 iterations 3
Cbc0038I Pass   9: suminf.    0.50785 (6) obj. 1.40248e+07 iterations 8
Cbc0038I Pass  10: suminf.    0.04879 (5) obj. 1.40248e+07 iterations 2
Cbc0038I Pass  11: suminf.    0.50785 (6) obj. 1.40248e+07 iterations 4
Cbc0038I Pass  12: suminf.    0.03216 (4) obj. 1.40248e+07 iterations 3
Cbc0038I Pass  13: suminf.    0.50785 (6) obj. 1.40248e+07 iterations 3
Cbc0038I Pass  14: suminf.    0.02447 (2) obj. 1.40248e+07 iterations 11
Cbc0038I Pass  15: suminf.    0.05016 (4) obj. 1.40248e+07 iterations 7
Cbc0038I Pass  16: suminf.    0.50785 (6) obj. 1.40248e+07 iterations 7
Cbc0038I Pass  17: suminf.    0.01615 (3) obj. 1.40248e+07 iterations 13
Cbc0038I Pass  18: suminf.    0.50785 (6) obj. 1.40248e+07 iterations 9
Cbc0038I Pass  19: suminf.    0.04165 (3) obj. 1.40248e+07 iterations 4
Cbc0038I Pass  20: suminf.    0.50785 (6) obj. 1.40248e+07 iterations 7
Cbc0038I Pass  21: suminf.    0.04879 (5) obj. 1.40248e+07 iterations 2
Cbc0038I Pass  22: suminf.    0.50785 (6) obj. 1.40248e+07 iterations 4
Cbc0038I Pass  23: suminf.    0.03216 (4) obj. 1.40248e+07 iterations 3
Cbc0038I Pass  24: suminf.    0.50785 (6) obj. 1.40248e+07 iterations 3
Cbc0038I Pass  25: suminf.    0.11475 (4) obj. 1.40248e+07 iterations 12
Cbc0038I Pass  26: suminf.    0.50785 (6) obj. 1.40248e+07 iterations 6
Cbc0038I Pass  27: suminf.    0.04892 (5) obj. 1.40248e+07 iterations 2
Cbc0038I Pass  28: suminf.    0.50785 (6) obj. 1.40248e+07 iterations 5
Cbc0038I Pass  29: suminf.    0.03216 (4) obj. 1.40248e+07 iterations 3
Cbc0038I Pass  30: suminf.    0.50785 (6) obj. 1.40248e+07 iterations 3
Cbc0038I Pass  31: suminf.    0.50785 (6) obj. 1.40248e+07 iterations 0
Cbc0038I Pass  32: suminf.    0.04892 (5) obj. 1.40248e+07 iterations 3
Cbc0038I Pass  33: suminf.    0.04892 (5) obj. 1.40248e+07 iterations 0
Cbc0038I Pass  34: suminf.    0.04892 (5) obj. 1.40248e+07 iterations 0
Cbc0038I Pass  35: suminf.    0.02447 (2) obj. 1.40248e+07 iterations 7
Cbc0038I No solution found this major pass
Cbc0038I Before mini branch and bound, 0 integers at bound fixed and 71 continuous
Cbc0038I Full problem 20 rows 110 columns, reduced to 18 rows 37 columns
Cbc0038I Mini branch and bound did not improve solution (0.01 seconds)
Cbc0038I After 0.01 seconds - Feasibility pump exiting with objective of 1.73863e+07 - took 0.01 seconds
Cbc0012I Integer solution of 17386350 found by feasibility pump after 0 iterations and 0 nodes (0.01 seconds)
Cbc0012I Integer solution of 16269105 found by DiveCoefficient after 75 iterations and 0 nodes (0.02 seconds)
Cbc0031I 23 added rows had average density of 15.608696
Cbc0013I At root node, 23 cuts changed objective from 578808.46 to 14724222 in 8 passes
Cbc0014I Cut generator 0 (Probing) - 26 row cuts average 3.4 elements, 0 column cuts (0 active)  in 0.001 seconds - new frequency is 1
Cbc0014I Cut generator 1 (Gomory) - 15 row cuts average 21.7 elements, 0 column cuts (0 active)  in 0.001 seconds - new frequency is 1
Cbc0014I Cut generator 2 (Knapsack) - 0 row cuts average 0.0 elements, 0 column cuts (0 active)  in 0.000 seconds - new frequency is -100
Cbc0014I Cut generator 3 (Clique) - 0 row cuts average 0.0 elements, 0 column cuts (0 active)  in 0.000 seconds - new frequency is -100
Cbc0014I Cut generator 4 (MixedIntegerRounding2) - 27 row cuts average 17.4 elements, 0 column cuts (0 active)  in 0.000 seconds - new frequency is 1
Cbc0014I Cut generator 5 (FlowCover) - 0 row cuts average 0.0 elements, 0 column cuts (0 active)  in 0.000 seconds - new frequency is -100
Cbc0014I Cut generator 6 (TwoMirCuts) - 23 row cuts average 25.5 elements, 0 column cuts (0 active)  in 0.001 seconds - new frequency is 1
Cbc0001I Search completed - best objective 16269105.26053483, took 75 iterations and 0 nodes (0.02 seconds)
Cbc0032I Strong branching done 2 times (2 iterations), fathomed 1 nodes and fixed 0 variables
Cbc0035I Maximum depth 0, 0 variables fixed on reduced cost
Cuts at root node changed objective from 578808 to 1.78215e+07
Probing was tried 8 times and created 26 cuts of which 0 were active after adding rounds of cuts (0.001 seconds)
Gomory was tried 8 times and created 15 cuts of which 0 were active after adding rounds of cuts (0.001 seconds)
Knapsack was tried 8 times and created 0 cuts of which 0 were active after adding rounds of cuts (0.000 seconds)
Clique was tried 8 times and created 0 cuts of which 0 were active after adding rounds of cuts (0.000 seconds)
MixedIntegerRounding2 was tried 8 times and created 27 cuts of which 0 were active after adding rounds of cuts (0.000 seconds)
FlowCover was tried 8 times and created 0 cuts of which 0 were active after adding rounds of cuts (0.000 seconds)
TwoMirCuts was tried 8 times and created 23 cuts of which 0 were active after adding rounds of cuts (0.001 seconds)
ZeroHalf was tried 1 times and created 0 cuts of which 0 were active after adding rounds of cuts (0.000 seconds)

Result - Optimal solution found

Objective value:                16269105.26053483
Enumerated nodes:               0
Total iterations:               75
Time (CPU seconds):             0.02
Time (Wallclock seconds):       0.02

Option for printingOptions changed from normal to all
Total time (CPU seconds):       0.02   (Wallclock seconds):       0.02

